c preprocessed version of celar08, 39 vertices, 283 edges
p td 39 283
0 1
0 2
0 9
0 4
0 6
0 14
0 3
0 18
19 0
24 0
23 0
15 0
25 0
28 0
27 0
29 0
1 2
8 1
7 1
1 9
1 10
1 6
1 11
1 12
1 13
1 14
1 4
16 1
15 1
25 1
28 1
27 1
30 1
2 3
2 9
2 4
2 6
2 18
2 14
19 2
24 2
23 2
15 2
25 2
28 2
27 2
29 2
3 4
3 6
3 11
3 12
16 3
22 3
26 3
29 3
30 3
5 4
9 4
4 6
4 11
4 12
4 17
16 4
19 4
24 4
23 4
22 4
26 4
27 4
29 4
30 4
5 6
24 5
23 5
25 5
28 5
27 5
29 5
30 5
7 6
9 6
10 6
6 17
6 14
6 11
6 12
16 6
24 6
23 6
15 6
25 6
28 6
27 6
29 6
30 6
8 7
7 9
7 10
7 11
7 12
7 13
7 14
16 7
19 7
15 7
27 7
8 9
8 10
8 11
8 12
8 13
16 8
15 8
26 8
25 8
28 8
9 10
9 11
9 12
9 13
9 17
9 14
16 9
19 9
24 9
23 9
15 9
27 9
29 9
30 9
10 11
10 12
10 13
10 14
10 17
16 10
19 10
15 10
25 10
28 10
27 10
30 10
11 12
11 13
11 17
16 11
19 11
15 11
25 11
28 11
12 13
12 17
16 12
19 12
15 12
13 14
16 13
15 13
27 13
15 14
27 14
15 16
15 26
15 27
15 29
15 30
15 25
15 28
21 15
16 17
16 20
16 19
17 18
19 17
23 17
22 17
25 17
28 17
19 18
29 18
19 20
22 19
26 19
25 19
28 19
21 20
21 22
21 23
21 24
21 26
25 21
28 21
27 21
29 21
30 21
23 22
24 22
25 22
28 22
24 23
25 23
28 23
27 23
29 23
30 23
25 24
28 24
27 24
29 24
26 25
25 27
25 29
25 30
25 28
26 27
26 29
26 30
26 28
28 27
27 29
27 30
28 29
28 30
29 30
31 8
31 20
31 33
31 36
31 37
31 35
31 34
31 32
31 26
32 8
32 20
32 33
32 36
32 37
32 35
32 34
32 26
33 8
33 20
33 36
33 37
33 34
33 35
33 26
34 8
34 20
34 36
34 38
34 37
34 35
34 26
35 38
35 8
35 20
35 36
35 37
35 26
35 25
35 28
35 21
36 38
36 8
36 20
36 37
36 26
36 25
36 28
37 38
37 8
37 20
37 26
37 25
37 28
38 31
38 32
38 33
38 16
38 19
38 20
